n= 20; m= 6;



20	7	8	2	19	21	21	23	17	26	30	11	2	24	31	6	14	34	33	14
26	18	19	15	29	31	34	14	32	21	29	11	33	35	4	33	38	29	19	3
23	74	64	28	21	53	25	32	32	74	68	32	13	31	74	57	40	31	41	19
30	3	12	36	10	16	11	35	39	15	35	20	2	16	11	10	19	37	19	7
25	17	11	31	17	23	28	2	38	19	19	30	21	31	2	28	17	20	33	37
23	74	64	28	21	53	25	32	32	74	68	32	13	31	74	57	40	31	41	19


